200
0 181 112 163 97 58 7 22 61 187 
140 8 85 174 19 128 171 162 188 156 
73 2 118 104 48 14 75 125 93 154 
95 101 135 92 108 80 178 36 111 132 
46 63 26 54 107 183 89 185 105 91 
199 164 131 28 151 194 45 20 133 62 
50 122 130 115 134 138 29 175 76 88 
160 59 103 198 79 121 102 44 69 172 
124 67 98 179 165 191 184 190 192 177 
57 16 90 189 1 65 173 74 27 21 
137 158 166 157 30 106 40 146 37 186 
153 136 141 13 155 12 152 34 150 168 
3 35 119 31 113 196 100 24 149 176 
145 68 159 77 17 52 96 144 38 9 
53 195 81 42 170 99 78 33 139 4 
123 129 197 94 64 120 86 180 110 114 
43 148 126 47 51 10 87 11 193 82 
142 169 116 84 109 117 32 143 5 182 
25 41 83 60 167 15 147 127 56 71 
39 161 66 72 70 49 55 6 23 18 
